outputs/case_177.model.txt
temporary_transaction_end_date = 0
legal_longer_retention_period = True
current_date = 0
transaction_temporary = False
business_relationship_end_date = 0
customer_identification_data_retained = True
internal_control_execution_confirmed = True
customer_identification_data_retention_period_ok = True
control_procedures_established = True
enhanced_due_diligence_performed = True
other_designated_matters_established = True
internal_control_executed = True
transaction_reported = True
customer_identification_performed = True
dedicated_personnel_assigned = True
penalty = False
audit_procedures_established = True
transaction_reporting_ok = True
internal_control_established = True
suspicious_transaction_reported = True
risk_assessment_report_updated = True
training_held = True
enhanced_customer_due_diligence_ok = True
suspicious_transaction_reporting_ok = True
customer_identification_procedure_ok = True